robust/generate/spp_dkp_Lefebvre_et_al_2026/src/shortest_path_8_10.kp
52
231

[4.13 0.13 1.06 3.11 0.49 3.11 0.27 4.82 4.92 2.62 3.2 3.84 3.84 2.1 3.86 2.13 4.65 3.42 1.85 4.31 1.91 0.48 1.63 2.08 3.73 3.3 1.01 4.06 3.95 1.98 2.56 4.0 2.24 3.73 0.4 2.45 2.18 1.24 4.33 0.1 2.26 0.24 2.5 4.31 1.68 4.53]

[25 39 77 60 15 85 72 89 69 23 51 18 42 11 37 9 22 92 15 52 97 96 64 56 69 68 89 91 66 60 90 25 30 83 57 83 66 56 59 91 50 75 17 16 21 65]
